(set-logic HORN)
(declare-fun assign_26_10_282_abs01 (Int Int Int Int Int Int) Bool)
(declare-fun assert_25_3_273_abs01 (Int Int Int Int Int Int) Bool)
(declare-fun assert_24_10_255_abs01 (Int Int Int Int Int Int) Bool)
(declare-fun while_22_8_285_abs01 (Int Int Int Int Int Int) Bool)
(declare-fun assert_21_8_217_abs01 (Int Int Int Int Int Int) Bool)
(declare-fun assign_20_8_187_abs01 (Int Int Int Int Int Int) Bool)
(declare-fun assert_19_8_181_abs01 (Int Int Int Int Int Int) Bool)
(declare-fun assign_18_1_151_abs01 (Int Int Int Int Int Int) Bool)
(declare-fun assert_17_8_145_abs01 (Int Int Int Int Int Int) Bool)
(declare-fun assign_15_5_112_abs01 (Int Int Int Int Int Int) Bool)
(declare-fun arrayassign_14_5_103_abs01 (Int Int Int Int Int Int) Bool)
(declare-fun assert_13_12_89_abs01 (Int Int Int Int Int Int) Bool)
(declare-fun while_12_1_115_abs01 (Int Int Int Int Int Int) Bool)
(declare-fun assign_11_1_46_abs01 (Int Int Int Int Int Int) Bool)
(declare-fun end_abs01 (Int Int Int Int Int Int) Bool)
(declare-fun start_abs01 (Int Int Int Int Int Int) Bool)
(assert (forall ((l Int) (i Int) (vabs_f_f Int) (vabs_s_f_f Int) (dest_select Int) (source_select Int)) (start_abs01 vabs_f_f dest_select vabs_s_f_f source_select l i)))
(assert (forall ((i Int) (l Int) (vabs_0_f_f Int) (vabs_0_s_f_f Int) (source_select Int) (dest_select Int)) (=> (start_abs01 vabs_0_f_f dest_select vabs_0_s_f_f source_select l i) (assign_11_1_46_abs01 vabs_0_f_f dest_select vabs_0_s_f_f source_select l i))))
(assert (forall ((i Int) (l Int) (vabs_0_f_f Int) (vabs_0_s_f_f Int) (source_select Int) (dest_select Int)) (=> (assign_11_1_46_abs01 vabs_0_f_f dest_select vabs_0_s_f_f source_select l i) (while_12_1_115_abs01 vabs_0_f_f dest_select vabs_0_s_f_f source_select l 0))))
(assert (forall ((l Int) (i Int) (vabs_0_f_f Int) (vabs_0_s_f_f Int) (dest_select Int) (source_select_0 Int) (source_select Int)) (=> (and (=> (= vabs_0_s_f_f i) (= source_select source_select_0)) (while_12_1_115_abs01 vabs_0_f_f dest_select i source_select l i) (while_12_1_115_abs01 vabs_0_f_f dest_select vabs_0_s_f_f source_select_0 l i) (not (= source_select 0))) (assert_13_12_89_abs01 vabs_0_f_f dest_select vabs_0_s_f_f source_select_0 l i))))
(assert (forall ((l Int) (i Int) (vabs_0_f_f Int) (vabs_0_s_f_f Int) (dest_select Int) (source_select_0 Int) (source_select Int)) (=> (and (=> (= vabs_0_s_f_f i) (= source_select source_select_0)) (while_12_1_115_abs01 vabs_0_f_f dest_select i source_select l i) (while_12_1_115_abs01 vabs_0_f_f dest_select vabs_0_s_f_f source_select_0 l i) (not (not (= source_select 0)))) (assert_17_8_145_abs01 vabs_0_f_f dest_select vabs_0_s_f_f source_select_0 l i))))
(assert (forall ((k Int) (i Int) (l Int) (source_select Int) (dest_select Int)) (=> (and (assert_13_12_89_abs01 k dest_select k source_select l i) (<= 0 k) (< k i)) (= dest_select source_select))))
(assert (forall ((i Int) (l Int) (vabs_0_f_f Int) (vabs_0_s_f_f Int) (source_select Int) (dest_select Int)) (=> (assert_13_12_89_abs01 vabs_0_f_f dest_select vabs_0_s_f_f source_select l i) (arrayassign_14_5_103_abs01 vabs_0_f_f dest_select vabs_0_s_f_f source_select l i))))
(assert (forall ((i Int) (l Int) (vabs_0_f_f Int) (vabs_0_s_f_f Int) (source_select_0 Int) (source_select Int) (dest_select Int)) (=> (and (=> (= i vabs_0_s_f_f) (= source_select source_select_0)) (arrayassign_14_5_103_abs01 vabs_0_f_f dest_select vabs_0_s_f_f source_select l i) (arrayassign_14_5_103_abs01 vabs_0_f_f dest_select i source_select_0 l i)) (assign_15_5_112_abs01 vabs_0_f_f (ite (= i vabs_0_f_f) source_select_0 dest_select) vabs_0_s_f_f source_select l i))))
(assert (forall ((i Int) (l Int) (vabs_0_f_f Int) (vabs_0_s_f_f Int) (source_select Int) (dest_select Int)) (=> (assign_15_5_112_abs01 vabs_0_f_f dest_select vabs_0_s_f_f source_select l i) (while_12_1_115_abs01 vabs_0_f_f dest_select vabs_0_s_f_f source_select l (+ i 1)))))
(assert (forall ((k Int) (i Int) (l Int) (source_select Int) (dest_select Int)) (=> (and (assert_17_8_145_abs01 k dest_select k source_select l i) (<= 0 k) (< k i)) (= source_select dest_select))))
(assert (forall ((i Int) (l Int) (vabs_0_f_f Int) (vabs_0_s_f_f Int) (source_select Int) (dest_select Int)) (=> (assert_17_8_145_abs01 vabs_0_f_f dest_select vabs_0_s_f_f source_select l i) (assign_18_1_151_abs01 vabs_0_f_f dest_select vabs_0_s_f_f source_select l i))))
(assert (forall ((i Int) (l Int) (vabs_0_f_f Int) (vabs_0_s_f_f Int) (source_select Int) (dest_select Int)) (=> (assign_18_1_151_abs01 vabs_0_f_f dest_select vabs_0_s_f_f source_select l i) (assert_19_8_181_abs01 vabs_0_f_f dest_select vabs_0_s_f_f source_select i i))))
(assert (forall ((k Int) (i Int) (l Int) (source_select Int) (dest_select Int)) (=> (and (assert_19_8_181_abs01 k dest_select k source_select l i) (<= 0 k) (< k l)) (= source_select dest_select))))
(assert (forall ((i Int) (l Int) (vabs_0_f_f Int) (vabs_0_s_f_f Int) (source_select Int) (dest_select Int)) (=> (assert_19_8_181_abs01 vabs_0_f_f dest_select vabs_0_s_f_f source_select l i) (assign_20_8_187_abs01 vabs_0_f_f dest_select vabs_0_s_f_f source_select l i))))
(assert (forall ((i Int) (l Int) (vabs_0_f_f Int) (vabs_0_s_f_f Int) (source_select Int) (dest_select Int)) (=> (assign_20_8_187_abs01 vabs_0_f_f dest_select vabs_0_s_f_f source_select l i) (assert_21_8_217_abs01 vabs_0_f_f dest_select vabs_0_s_f_f source_select l 0))))
(assert (forall ((k Int) (i Int) (l Int) (source_select Int) (dest_select Int)) (=> (and (assert_21_8_217_abs01 k dest_select k source_select l i) (<= 0 k) (< k l)) (= source_select dest_select))))
(assert (forall ((i Int) (l Int) (vabs_0_f_f Int) (vabs_0_s_f_f Int) (source_select Int) (dest_select Int)) (=> (assert_21_8_217_abs01 vabs_0_f_f dest_select vabs_0_s_f_f source_select l i) (while_22_8_285_abs01 vabs_0_f_f dest_select vabs_0_s_f_f source_select l i))))
(assert (forall ((l Int) (i Int) (vabs_0_f_f Int) (vabs_0_s_f_f Int) (dest_select Int) (source_select Int)) (=> (and (while_22_8_285_abs01 vabs_0_f_f dest_select vabs_0_s_f_f source_select l i) (< i l)) (assert_24_10_255_abs01 vabs_0_f_f dest_select vabs_0_s_f_f source_select l i))))
(assert (forall ((l Int) (i Int) (vabs_0_f_f Int) (vabs_0_s_f_f Int) (dest_select Int) (source_select Int)) (=> (and (while_22_8_285_abs01 vabs_0_f_f dest_select vabs_0_s_f_f source_select l i) (not (< i l))) (end_abs01 vabs_0_f_f dest_select vabs_0_s_f_f source_select l i))))
(assert (forall ((k Int) (i Int) (l Int) (source_select Int) (dest_select Int)) (=> (and (assert_24_10_255_abs01 k dest_select k source_select l i) (<= 0 k) (< k l)) (= source_select dest_select))))
(assert (forall ((i Int) (l Int) (vabs_0_f_f Int) (vabs_0_s_f_f Int) (source_select Int) (dest_select Int)) (=> (assert_24_10_255_abs01 vabs_0_f_f dest_select vabs_0_s_f_f source_select l i) (assert_25_3_273_abs01 vabs_0_f_f dest_select vabs_0_s_f_f source_select l i))))
(assert (forall ((i Int) (l Int) (source_select Int) (dest_select Int)) (=> (assert_25_3_273_abs01 i dest_select i source_select l i) (= source_select dest_select))))
(assert (forall ((i Int) (l Int) (vabs_0_f_f Int) (vabs_0_s_f_f Int) (source_select Int) (dest_select Int)) (=> (assert_25_3_273_abs01 vabs_0_f_f dest_select vabs_0_s_f_f source_select l i) (assign_26_10_282_abs01 vabs_0_f_f dest_select vabs_0_s_f_f source_select l i))))
(assert (forall ((i Int) (l Int) (vabs_0_f_f Int) (vabs_0_s_f_f Int) (source_select Int) (dest_select Int)) (=> (assign_26_10_282_abs01 vabs_0_f_f dest_select vabs_0_s_f_f source_select l i) (while_22_8_285_abs01 vabs_0_f_f dest_select vabs_0_s_f_f source_select l (+ i 1)))))
(check-sat)